NAME 
ROWS
 N  OBJ
 L  R0      
 E  R1      
 E  R2      
 E  R3      
 E  R4      
 E  R5      
 E  R6      
 E  R7      
 E  R8      
 E  R9      
 E  R10     
 E  R11     
 E  R12     
 E  R13     
 E  R14     
 E  R15     
COLUMNS
    MARKER    'MARKER'                 'INTORG'
    I0(8)     OBJ       -108
    I0(8)     R0        192
    I0(8)     R1        1
    I0(8)     R3        7
    I0(8)     R4        6
    I0(8)     R5        18
    I0(8)     R6        8
    I0(8)     R7        8
    I0(8)     R15       1
    I1(6)     OBJ       190
    I1(6)     R0        -26
    I1(6)     R1        15
    I1(6)     R2        12
    I1(6)     R4        5
    I1(6)     R6        16
    I1(6)     R15       1
    I2(8)     OBJ       111
    I2(8)     R0        172
    I2(8)     R1        17
    I2(8)     R2        5
    I2(8)     R3        10
    I2(8)     R5        -1
    I2(8)     R6        14
    I2(8)     R7        15
    I2(8)     R15       1
    I3(6)     OBJ       131
    I3(6)     R0        29
    I3(6)     R1        11
    I3(6)     R2        -1
    I3(6)     R3        12
    I3(6)     R6        5
    I3(6)     R15       1
    I4(7)     OBJ       9
    I4(7)     R0        65
    I4(7)     R3        19
    I4(7)     R4        16
    I4(7)     R5        16
    I4(7)     R6        3
    I4(7)     R7        15
    I4(7)     R15       1
    I5(8)     OBJ       -17
    I5(8)     R0        -137
    I5(8)     R1        11
    I5(8)     R2        13
    I5(8)     R3        16
    I5(8)     R5        -1
    I5(8)     R6        10
    I5(8)     R7        3
    I5(8)     R15       1
    I6(6)     OBJ       6
    I6(6)     R0        161
    I6(6)     R1        16
    I6(6)     R4        7
    I6(6)     R5        14
    I6(6)     R6        11
    I6(6)     R15       1
    MARKER    'MARKER'                 'INTEND'
    C7(13)    OBJ       9
    C7(13)    R0        7
    C7(13)    R1        4
    C7(13)    R2        13
    C7(13)    R3        9
    C7(13)    R5        -1
    C7(13)    R6        7
    C7(13)    R7        14
    C7(13)    R8        6
    C7(13)    R10       17
    C7(13)    R11       2
    C7(13)    R12       17
    C7(13)    R13       9
    C7(13)    R14       13
    C8(12)    OBJ       -2
    C8(12)    R1        19
    C8(12)    R3        10
    C8(12)    R4        3
    C8(12)    R5        11
    C8(12)    R6        15
    C8(12)    R7        1
    C8(12)    R8        11
    C8(12)    R9        19
    C8(12)    R10       18
    C8(12)    R12       19
    C8(12)    R13       3
    C8(12)    R14       16
    C9(13)    OBJ       -2
    C9(13)    R0        2
    C9(13)    R1        15
    C9(13)    R2        9
    C9(13)    R3        9
    C9(13)    R4        13
    C9(13)    R5        1
    C9(13)    R6        -1
    C9(13)    R8        12
    C9(13)    R10       17
    C9(13)    R11       16
    C9(13)    R12       9
    C9(13)    R13       2
    C9(13)    R14       17
    C10(12)   OBJ       3
    C10(12)   R0        -4
    C10(12)   R1        7
    C10(12)   R2        16
    C10(12)   R3        1
    C10(12)   R4        13
    C10(12)   R5        5
    C10(12)   R7        18
    C10(12)   R8        4
    C10(12)   R9        13
    C10(12)   R11       14
    C10(12)   R12       9
    C10(12)   R13       16
    C11(13)   OBJ       -1
    C11(13)   R0        9
    C11(13)   R2        7
    C11(13)   R3        19
    C11(13)   R4        6
    C11(13)   R5        19
    C11(13)   R6        19
    C11(13)   R7        7
    C11(13)   R9        17
    C11(13)   R10       15
    C11(13)   R11       1
    C11(13)   R12       9
    C11(13)   R13       14
    C11(13)   R14       9
    C12(10)   OBJ       -7
    C12(10)   R0        6
    C12(10)   R2        13
    C12(10)   R3        13
    C12(10)   R5        18
    C12(10)   R6        17
    C12(10)   R7        14
    C12(10)   R9        16
    C12(10)   R11       1
    C12(10)   R12       10
    C12(10)   R13       -1
    C13(13)   OBJ       4
    C13(13)   R0        2
    C13(13)   R1        15
    C13(13)   R2        16
    C13(13)   R4        5
    C13(13)   R6        4
    C13(13)   R7        6
    C13(13)   R8        19
    C13(13)   R9        9
    C13(13)   R10       12
    C13(13)   R11       19
    C13(13)   R12       14
    C13(13)   R13       6
    C13(13)   R14       15
    C14(14)   OBJ       -8
    C14(14)   R0        4
    C14(14)   R1        13
    C14(14)   R3        11
    C14(14)   R4        3
    C14(14)   R5        10
    C14(14)   R6        10
    C14(14)   R7        5
    C14(14)   R8        13
    C14(14)   R9        13
    C14(14)   R10       5
    C14(14)   R11       1
    C14(14)   R12       17
    C14(14)   R13       11
    C14(14)   R14       14
    C15(1)    R1        1
    C16(1)    R2        1
    C17(1)    R3        1
    C18(1)    R4        1
    C19(1)    R5        1
    C20(1)    R6        1
    C21(1)    R7        1
    C22(1)    R8        1
    C23(1)    R9        1
    C24(1)    R10       1
    C25(1)    R11       1
    C26(1)    R12       1
    C27(1)    R13       1
    C28(1)    R14       1
    C29(1)    R15       1
RHS
    RHS1      R0        4.0352820512820517e+02
    RHS1      R1        70
    RHS1      R2        56
    RHS1      R3        98
    RHS1      R4        69
    RHS1      R5        83
    RHS1      R6        80
    RHS1      R7        93
    RHS1      R8        81
    RHS1      R9        60
    RHS1      R10       50
    RHS1      R11       56
    RHS1      R12       90
    RHS1      R13       92
    RHS1      R14       80
    RHS1      R15       2
BOUNDS
 UP BND1      I0(8)     2
 UP BND1      I1(6)     2
 UP BND1      I2(8)     2
 UP BND1      I3(6)     2
 UP BND1      I4(7)     2
 UP BND1      I5(8)     2
 UP BND1      I6(6)     2
ENDATA
